
%FILE DATA:	Soccer Computational Problem for MiniZinc Models	%
%AUTHOR:	Jack Wall	%
%CONTACT:  	116397063@umail.ucc.ie			%
%LAST UPDATE:	03/02/2020, 18:19:35						%
%DESCRIPTION: 	99 games played with 11 games left				%


n=11; %number of teams

%Games to play
games=[|7,5|1,6|5,9|4,7|5,8|8,2|4,9|8,3|5,7|2,8|9,10|];

%Initial points
iPoints=[24,22,33,18,22,21,18,25,26,29,32];

%POSITION CONSTRAINTS
% [|teamID, operator, position|...]
% operators index:
%  1 for =  operator
%  2 for >  operator
%  3 for >= operator
%  4 for <  operator
%  5 for <= operator
positionConstraints=[|3,5,1|11,2,1|10,4,4|8,2,3|];